(declare-const x0 Bool)
(declare-const x1 Bool)
(declare-const x2 Bool)
(declare-const x3 Bool)
(declare-const x4 Bool)
(declare-const x5 Bool)
(declare-const x6 Bool)
(declare-const x7 Bool)
(declare-const x8 Bool)
(declare-const x9 Bool)
(declare-const x10 Bool)
(declare-const x11 Bool)
(declare-const x12 Bool)
(declare-const x13 Bool)
(declare-const x14 Bool)
(declare-const x15 Bool)
(assert (= x8 (= (and true true) false)))
(assert (= true (= false false)))
(assert (or (or (and x13 x3) (= (and x1 x11) x0)) (or x15 x3)))
(assert (or (= x9 x9) x9))
(assert (= x7 (and x12 x9)))
(assert (and (= (= (and (= (and false x6) (or x6 x8)) (= false x13)) (or (or x12 true) x13)) (= (= false (= true x10)) (= (= (= true x1) (or true false)) (or x12 false)))) (or false (= x1 x10))))
(assert (or false (= x1 x9)))
(assert (= (or (and (and true true) (or x2 x4)) x10) false))
(assert (= (= (or (or (and false (and false x5)) (and (and x5 (and x12 x8)) (and true false))) (= true x9)) (= (or x13 true) (or true true))) (and x8 (or (or x4 x8) (= true false)))))
(check-sat)
